53274 7907
27024 15043
60354 38271
51685 4871
52156 26996
36596 56741
63858 62831
11316 13460
1414 47027
2769 15225
52211 27114
12982 35619
55988 45751
50057 51102
19221 23345
22839 48593
53780 56998
63641 6657
31518 27367
32750 9704
30827 2284
57282 2196
12441 23518
34679 7392
6723 19223
32000 52046
33103 57603
1740 38433
43665 32850
62207 54331
54759 36535
38164 57868
65525 37523
55939 48415
47049 20548
19204 33613
50522 39936
20878 21645
28966 25817
50235 21203
11595 5954
13851 36225
4350 27314
8178 46715
31681 31017
63165 11915
36726 43256
27548 42919
44525 37100
